(set-logic ALL)
(declare-fun seed0_T_8 () Bool)
(declare-fun seed0_T_SELECT_1 () Bool)
(declare-fun seed0_I0_2 () Int)
(declare-fun seed0_PCTEMP_LHS_1 () Int)
(declare-fun seed0_T0_2 () String)
(declare-fun seed0_T1_2 () String)
(declare-fun seed0_T2_2 () String)
(declare-fun seed0_T3_2 () String)
(declare-fun seed0_T4_2 () String)
(declare-fun seed0_T5_2 () String)
(declare-fun seed0_var_0xINPUT_109429 () String)
(assert (and (or (str.<= seed0_var_0xINPUT_109429 (str.++ seed0_T0_2 seed0_T1_2)) (xor (str.contains (str.++ seed0_var_0xINPUT_109429 "OKALF") (str.++ seed0_T3_2 "dyw8nhA2G9Zx6ErIJ")) (str.contains (str.++ seed0_T4_2 "gykCs1wKiB") (str.++ seed0_T0_2 "p3fakj")))) (or (str.contains seed0_T1_2 (str.++ seed0_T2_2 seed0_T3_2)) (xor (<= (div seed0_I0_2 seed0_I0_2) (+ seed0_PCTEMP_LHS_1 403)) (<= (mod seed0_I0_2 seed0_PCTEMP_LHS_1) (+ seed0_PCTEMP_LHS_1 (- 696))))) (or (str.prefixof seed0_T2_2 (str.++ seed0_T4_2 seed0_T5_2)) (or (str.contains (str.++ seed0_T3_2 "Vu6") (str.++ seed0_var_0xINPUT_109429 "Aa73CJfISQmp")) (str.prefixof (str.++ seed0_T4_2 "j53esySoM8H") (str.++ seed0_T3_2 "IKeLr5Az98Hkt")))) (or (not (str.in_re seed0_T4_2 (str.to_re "__utma=16886264."))) (not (str.prefixof (str.++ seed0_T1_2 "9D1tiaZr8uU0") (str.++ seed0_T3_2 "lROnfWIXx")))) (or (= seed0_T5_2 "__utma=16886264.") (=> (>= (- seed0_I0_2 (- 67)) (- seed0_I0_2 (- 999))) (= (* seed0_PCTEMP_LHS_1 seed0_I0_2) (* seed0_PCTEMP_LHS_1 seed0_PCTEMP_LHS_1)))) (or seed0_T_8 (str.contains (str.++ seed0_T1_2 "rZG9hjWC6mu5NiI") (str.++ seed0_T1_2 "YMQ7Jx"))) (or (= seed0_T_8 (< (- 1) seed0_PCTEMP_LHS_1)) (=> (< (mod seed0_I0_2 seed0_PCTEMP_LHS_1) (- seed0_I0_2 (- 535))) (>= (* seed0_I0_2 seed0_PCTEMP_LHS_1) (+ seed0_I0_2 (- 213))))) (or (>= seed0_PCTEMP_LHS_1 (+ seed0_I0_2 0)) (and (< (+ seed0_I0_2 32) (mod seed0_I0_2 seed0_I0_2)) (> (- seed0_I0_2 435) (+ seed0_PCTEMP_LHS_1 (- 416))))) (or (= seed0_T_SELECT_1 (not (= seed0_PCTEMP_LHS_1 (- 1)))) (not (str.<= (str.++ seed0_T5_2 "z3E28oHFZLlBvICjWP") (str.++ seed0_T3_2 "Z8lP0ixWjF9VC")))) (or (= 0 (str.len seed0_T0_2)) (or (distinct (mod seed0_PCTEMP_LHS_1 seed0_PCTEMP_LHS_1) (mod seed0_I0_2 seed0_I0_2)) (<= (+ seed0_PCTEMP_LHS_1 796) (mod seed0_PCTEMP_LHS_1 seed0_I0_2)))) (or (>= seed0_I0_2 (str.len seed0_T4_2)) (=> (>= (div seed0_I0_2 seed0_I0_2) (+ seed0_I0_2 (- 563))) (> (* seed0_I0_2 seed0_I0_2) (+ seed0_PCTEMP_LHS_1 379)))) (or seed0_T_SELECT_1 (>= (* seed0_I0_2 seed0_PCTEMP_LHS_1) (- seed0_I0_2 (- 164))))))
(check-sat)
(exit)